==> MAXTIME              = 3600
==> OUTPUTLOG            = 1
==> HEURSEARCHROOTSELECT = 0
FICO Xpress v8.5.9, solve started 23:43:21, Jun 8, 2019
Maximizing MILP Seating model
Original problem has:
       230 rows          300 cols         7440 elements       300 globals
Presolved problem has:
       103 rows          204 cols         2431 elements       198 globals
LP relaxation tightened
Will try to keep branch and bound tree memory usage below 7.2GB
 *** Heuristic solution found:    22.000000      Time: 0 ***
Starting concurrent solve with dual

 Concurrent-Solve,   0s
            Dual        
    objective   dual inf
 D  102.00000   .0000000
------- optimal --------
Concurrent statistics:
      Dual: 34 simplex iterations, 0.00s
Optimal solution found
 
   Its         Obj Value      S   Ninf  Nneg   Sum Dual Inf  Time
    34        102.000000      D      0     0        .000000     0
Dual solved problem
  34 simplex iterations in 0s

Final objective                         : 1.020000000000000e+02
  Max primal violation      (abs / rel) : 1.110e-16 / 9.869e-17
  Max dual violation        (abs / rel) :       0.0 /       0.0
  Max complementarity viol. (abs / rel) :       0.0 /       0.0
All values within tolerances

Starting root cutting & heuristics
 
 Its Type    BestSoln    BestBound   Sols    Add    Del     Gap     GInf   Time
   1  K     22.000000   102.000000      1     99      0   78.43%      29      0
   2  K     22.000000   102.000000      1    111     81   78.43%      43      0
   3  K     22.000000   102.000000      1     92    101   78.43%      48      0
b           28.000000   102.000000      2                 72.55%       0      0
   4  K     28.000000   102.000000      2     87     94   72.55%      35      0
   5  K     28.000000   102.000000      2    100     83   72.55%      49      0
   6  K     28.000000   102.000000      2     93     97   72.55%      47      0
   7  K     28.000000   102.000000      2     89     88   72.55%      58      0
b           35.000000   102.000000      3                 65.69%       0      0
   8  K     35.000000   102.000000      3     81     91   65.69%      37      0
   9  K     35.000000   102.000000      3     95     87   65.69%      48      0
  10  K     35.000000   102.000000      3     97     89   65.69%      58      0
  11  K     35.000000   102.000000      3     83     86   65.69%      67      0
  12  K     35.000000   102.000000      3     93     82   65.69%      72      0
  13  K     35.000000   102.000000      3     87     85   65.69%      76      0
  14  K     35.000000   102.000000      3      2     83   65.69%      39      0
  15  K     35.000000   102.000000      3      1      7   65.69%      39      0
  16  K     35.000000   102.000000      3      1     13   65.69%      39      0
  17  K     35.000000   102.000000      3     96      8   65.69%      58      0
  18  K     35.000000   102.000000      3      2     91   65.69%      39      0
b           47.000000   102.000000      4                 53.92%       0      0
  19  K     47.000000   102.000000      4     93     14   53.92%      52      0
  20  K     47.000000   102.000000      4     99    150   53.92%      59      0
  21  G     47.000000   102.000000      4     39     31   53.92%      41      0
  22  G     47.000000   102.000000      4     70    110   53.92%      55      0
 
Cuts in the matrix         : 39
Cut elements in the matrix : 1106
 
Starting tree search.
Deterministic mode with up to 4 running threads and up to 8 tasks.
 
    Node     BestSoln    BestBound   Sols Active  Depth     Gap     GInf   Time
       1    47.000000   102.000000      4      2      1   53.92%      45      0
       2    47.000000   102.000000      4      2      3   53.92%      47      0
       3    47.000000   102.000000      4      2      4   53.92%      38      0
       4    47.000000   102.000000      4      2      5   53.92%      49      0
       5    47.000000   102.000000      4      5      4   53.92%      38      0
       6    47.000000   102.000000      4      5      3   53.92%      48      0
       7    47.000000   102.000000      4      5      5   53.92%      50      0
       8    47.000000   102.000000      4      5      4   53.92%      41      0
       9    47.000000   102.000000      4      5      6   53.92%      37      0
      10    47.000000   102.000000      4      8      5   53.92%      29      0
      22    47.000000   102.000000      4     15      9   53.92%      54      0
      32    47.000000   102.000000      4     15     16   53.92%      39      0
      48    47.000000   102.000000      4     23     18   53.92%      36      0
      63    47.000000   102.000000      4     33     10   53.92%      62      0
      84    47.000000   102.000000      4     33     16   53.92%      29      0
     112    47.000000   102.000000      4     33     23   53.92%       6      0
a    196    48.000000   102.000000      5     46     26   52.94%       0      0
     213    48.000000   102.000000      5     46     29   52.94%       4      0
     313    48.000000   102.000000      5     92     15   52.94%      37      0
B&B tree size: 0.8MB total
 
    Node     BestSoln    BestBound   Sols Active  Depth     Gap     GInf   Time
     423    48.000000   102.000000      5     92     27   52.94%       8      0
a    506    56.000000   102.000000      6     92     22   45.10%       0      1
     525    56.000000   102.000000      6     92     14   45.10%      24      1
     627    56.000000   101.228404      6    103     20   44.68%      29      1
     732    56.000000   101.228404      6    139     20   44.68%      25      1
     846    56.000000   101.228404      6    207     18   44.68%      42      1
     953    56.000000   101.228404      6    207     16   44.68%      35      1
    1056    56.000000   101.228404      6    207     21   44.68%      30      1
    1161    56.000000   101.228404      6    207     19   44.68%      44      1
a   1223    59.000000   101.228404      7    207     21   41.72%       0      1
    1264    59.000000   101.228404      7    207     26   41.72%      35      1
    1366    59.000000   101.228404      7    223     16   41.72%      37      1
    1470    59.000000   100.873301      7    267     16   41.51%      41      1
    1574    59.000000   100.873301      7    278     16   41.51%      47      1
    1679    59.000000   100.873301      7    278     20   41.51%      37      1
    1779    59.000000   100.873301      7    278     18   41.51%      23      1
    1879    59.000000   100.873301      7    314     16   41.51%      41      2
    2003    59.000000   100.873301      7    360     27   41.51%      14      2
    2117    59.000000   100.873301      7    360     23   41.51%      17      2
    2220    59.000000   100.873301      7    360     22   41.51%      22      2
B&B tree size: 4.5MB total
 
    Node     BestSoln    BestBound   Sols Active  Depth     Gap     GInf   Time
    2327    59.000000   100.873301      7    466     18   41.51%      28      2
    2431    59.000000   100.873301      7    466     21   41.51%      31      2
    2534    59.000000   100.873301      7    518     21   41.51%      29      2
    2645    59.000000    96.583333      7    593     13   38.91%      22      2
    2756    59.000000    96.583333      7    624     16   38.91%      42      2
    2862    59.000000    96.583333      7    624     18   38.91%      44      2
    2975    59.000000    96.583333      7    624     20   38.91%      30      3
    3083    59.000000    96.583333      7    624     23   38.91%      37      3
    3184    59.000000    96.583333      7    624     25   38.91%      26      3
    3296    59.000000    96.583333      7    685     21   38.91%      34      3
    3411    59.000000    96.583333      7    685     16   38.91%      38      3
    3517    59.000000    96.583333      7    685     17   38.91%      38      3
    3623    59.000000    96.583333      7    685     20   38.91%      36      3
    3733    59.000000    96.583333      7    685     20   38.91%      17      3
    3839    59.000000    96.583333      7    802     18   38.91%      22      3
    3948    59.000000    96.583333      7    802     15   38.91%      47      3
    4056    59.000000    96.583333      7    802     17   38.91%      50      3
    4162    59.000000    96.583333      7    802     21   38.91%      36      3
    4272    59.000000    96.583333      7    802     16   38.91%      39      3
    4378    59.000000    96.583333      7    802     18   38.91%      42      3
B&B tree size: 8.1MB total
 
    Node     BestSoln    BestBound   Sols Active  Depth     Gap     GInf   Time
    4485    59.000000    96.583333      7    802     16   38.91%      37      3
    4592    59.000000    96.583333      7    929     15   38.91%      28      4
    4715    59.000000    96.583333      7    996     19   38.91%      41      4
    4827    59.000000    96.583333      7    996     21   38.91%      41      4
    4933    59.000000    96.583333      7    996     22   38.91%      33      4
    5058    59.000000    96.583333      7   1206     21   38.91%      25      4
    5173    59.000000    96.583333      7   1206     22   38.91%      33      4
    5283    59.000000    96.583333      7   1206     16   38.91%      33      4
    5391    59.000000    96.583333      7   1206     22   38.91%       9      4
    5494    59.000000    96.583333      7   1206     18   38.91%      41      4
    5599    59.000000    94.576454      7   1316     18   37.62%      24      4
    5700    59.000000    94.576454      7   1316     15   37.62%      41      4
    5810    59.000000    94.576454      7   1362     17   37.62%      42      4
    5914    59.000000    94.576454      7   1362     16   37.62%      43      4
    6032    59.000000    94.576454      7   1373     24   37.62%      12      4
    6142    59.000000    94.576454      7   1390     17   37.62%      46      5
    6246    59.000000    94.576454      7   1390     21   37.62%      30      5
    6347    59.000000    94.576454      7   1390     23   37.62%      35      5
    6455    59.000000    94.576454      7   1390     17   37.62%      43      5
    6569    59.000000    94.576454      7   1390     19   37.62%      40      5
B&B tree size: 11MB total
 
    Node     BestSoln    BestBound   Sols Active  Depth     Gap     GInf   Time
    6682    59.000000    94.576454      7   1390     22   37.62%      30      5
    6787    59.000000    94.576454      7   1450     22   37.62%      27      5
    6887    59.000000    94.576454      7   1450     23   37.62%      24      5
    7002    59.000000    94.576454      7   1450     23   37.62%      23      5
    7117    59.000000    94.576454      7   1571     18   37.62%      28      5
    7222    59.000000    94.576454      7   1571     16   37.62%      55      5
    7325    59.000000    94.576454      7   1598     22   37.62%      30      5
    7436    59.000000    91.808231      7   1631     25   35.74%      24      5
    7545    59.000000    90.322419      7   1667     22   34.68%      23      6
    7652    59.000000    90.322419      7   1667     23   34.68%      20      6
    7774    59.000000    89.770963      7   1706     16   34.28%      46      6
    7880    59.000000    89.770963      7   1706     17   34.28%      33      6
    8011    59.000000    89.770963      7   1706     24   34.28%      29      6
a   8077    60.000000    89.770963      8   1706     25   33.16%       0      6
    8118    60.000000    89.770963      8   1706     22   33.16%      34      6
    8229    60.000000    89.770963      8   1706     21   33.16%      32      6
    8330    60.000000    89.770963      8   1687     20   33.16%      36      6
    8435    60.000000    89.770963      8   1687     21   33.16%      42      6
    8539    60.000000    89.770963      8   1716     17   33.16%      38      6
    8649    60.000000    89.770963      8   1716     16   33.16%      30      6
B&B tree size: 14MB total
 
    Node     BestSoln    BestBound   Sols Active  Depth     Gap     GInf   Time
    8753    60.000000    89.770963      8   1787     16   33.16%      39      6
    8859    60.000000    87.384709      8   1805     20   31.34%      44      7
    8975    60.000000    87.384709      8   1816     25   31.34%      18      7
    9090    60.000000    87.384709      8   1816     14   31.34%      41      7
    9190    60.000000    87.384709      8   1816     19   31.34%      25      7
    9294    60.000000    86.306098      8   1908     25   30.48%       2      7
    9401    60.000000    86.306098      8   1908     20   30.48%      24      7
    9518    60.000000    86.306098      8   1908     21   30.48%      35      7
    9624    60.000000    86.306098      8   1931     22   30.48%      30      7
    9733    60.000000    86.306098      8   1931     16   30.48%      30      7
    9837    60.000000    86.306098      8   1931     20   30.48%      38      7
    9942    60.000000    86.306098      8   1931     19   30.48%      34      7
   10042    60.000000    85.714666      8   1963      1   30.00%       1      7
   11051    60.000000    84.959855      8   2078     18   29.38%      50      8
   12052    60.000000    83.761525      8   2182     18   28.37%      32      9
   13067    60.000000    83.065773      8   2225     19   27.77%      35     10
   14083    60.000000    82.802171      8   2328     25   27.54%      40     10
   15089    60.000000    82.022981      8   2454     17   26.85%      40     11
   16105    60.000000    82.022981      8   2521     19   26.85%      17     12
   17112    60.000000    82.000000      8   2636     19   26.83%      24     12
B&B tree size: 25MB total
 
    Node     BestSoln    BestBound   Sols Active  Depth     Gap     GInf   Time
   18126    60.000000    82.000000      8   2722     19   26.83%      26     13
   19134    60.000000    82.000000      8   2830     25   26.83%      25     14
   20142    60.000000    79.879365      8   2879     28   24.89%      21     15
   21153    60.000000    79.258630      8   2944     21   24.30%      33     15
   22153    60.000000    78.671926      8   2952     16   23.73%      24     16
   23161    60.000000    78.000000      8   2948     22   23.08%      24     17
   24162    60.000000    78.000000      8   2943     20   23.08%      30     17
   25168    60.000000    78.000000      8   2974     24   23.08%      44     18
   26175    60.000000    77.000000      8   2974     15   22.08%      48     19
   27181    60.000000    77.000000      8   2978     16   22.08%      28     19
   28194    60.000000    75.777184      8   2943     25   20.82%      28     20
   29202    60.000000    75.171703      8   2890     20   20.18%      36     20
   30204    60.000000    74.759658      8   2863     16   19.74%      42     21
   31221    60.000000    74.348364      8   2815     19   19.30%      32     21
   32224    60.000000    74.009449      8   2762     18   18.93%      32     22
   33230    60.000000    74.000000      8   2747     19   18.92%      31     22
   34242    60.000000    73.006030      8   2669     19   17.82%      39     23
   35246    60.000000    73.000000      8   2569     22   17.81%      34     24
   36251    60.000000    72.164725      8   2457     19   16.86%      38     24
   37255    60.000000    72.000000      8   2345     19   16.67%      42     25
B&B tree size: 29MB total
 
    Node     BestSoln    BestBound   Sols Active  Depth     Gap     GInf   Time
   38264    60.000000    71.015605      8   2204     13   15.51%      38     26
   39269    60.000000    71.000000      8   2033     22   15.49%      38     26
   40280    60.000000    70.052083      8   1934     30   14.35%      17     27
   41294    60.000000    69.347720      8   1778     24   13.48%      20     27
   42294    60.000000    69.000000      8   1633     20   13.04%      34     28
   43301    60.000000    68.000000      8   1398     18   11.76%      37     28
   44302    60.000000    67.000000      8   1159     21   10.45%      35     29
   45306    60.000000    66.000000      8    823     18    9.09%      27     29
   46311    60.000000    63.046169      8    301     26    4.83%      24     30
 *** Search completed ***     Time:    30 Nodes:      47049
Number of integer feasible solutions found is 8
Best integer solution found is    60.000000
Best bound is    60.000000
Uncrunching matrix
